% seed = 3497675

mint = 39;
% maxt = 110;

nActs = 22;
dur = [0,3,1,7,6,8,5,4,7,9,10,4,2,10,7,1,4,5,8,6,3,0];

nSkills = 4;
sreq = [| 0,0,0,0,
	| 2,1,1,3,
	| 3,1,2,3,
	| 3,1,1,3,
	| 1,3,3,2,
	| 2,3,3,3,
	| 1,3,2,1,
	| 2,3,1,3,
	| 2,1,2,2,
	| 1,2,2,2,
	| 1,3,1,2,
	| 3,2,1,3,
	| 2,1,1,2,
	| 2,1,2,2,
	| 1,3,1,2,
	| 1,3,1,3,
	| 1,2,2,3,
	| 2,1,1,2,
	| 2,3,3,1,
	| 3,3,3,2,
	| 2,3,2,1,
	| 0,0,0,0, |];

nResources = 20;
mastery = [| true,true,false,true,
	| true,true,false,true,
	| false,false,false,true,
	| false,true,true,true,
	| true,false,true,false,
	| false,false,false,true,
	| true,false,false,false,
	| true,false,true,true,
	| true,false,true,true,
	| false,true,true,false,
	| true,false,false,false,
	| false,true,false,false,
	| true,true,true,false,
	| true,true,false,false,
	| true,false,false,false,
	| true,true,false,true,
	| false,false,false,true,
	| true,false,true,true,
	| false,false,true,false,
	| false,false,true,true, |];

nPrecs = 43;
pred = [1,1,1,2,2,2,3,3,4,4,4,5,5,5,6,6,6,7,7,7,8,9,10,10,10,11,11,11,12,12,13,13,14,15,15,16,16,17,17,18,19,20,21];
succ = [2,3,4,10,13,8,6,7,17,12,5,20,14,8,10,11,8,13,15,16,9,16,17,18,14,13,14,15,15,16,19,20,21,18,20,18,21,19,21,19,22,22,22];

nUnrels = 85;
unpred = [2,2,2,2,2,2,2,2,3,3,3,4,4,4,4,4,5,5,5,5,5,5,5,5,6,6,7,7,7,7,7,7,7,8,8,8,8,8,8,8,8,9,9,9,9,9,9,9,9,10,10,10,10,10,10,11,11,11,12,12,12,13,13,13,13,13,13,14,14,14,14,14,14,15,15,15,16,16,17,17,18,18,19,19,20];
unsucc = [3,4,5,6,7,11,12,15,4,5,12,6,7,10,11,13,6,7,10,11,12,13,15,17,7,12,8,9,10,11,12,14,17,10,11,12,13,14,15,17,20,10,11,12,13,14,15,17,20,11,12,13,15,16,20,12,16,17,13,14,17,14,15,16,17,18,21,15,16,17,18,19,20,16,17,21,17,20,18,20,20,21,20,21,21];

USEFUL_RES = [{},
	{1,2,3,4,5,6,7,8,9,10,11,12,13,14,15,16,17,18,19,20},
	{1,2,3,4,5,6,7,8,9,10,11,12,13,14,15,16,17,18,19,20},
	{1,2,3,4,5,6,7,8,9,10,11,12,13,14,15,16,17,18,19,20},
	{1,2,3,4,5,6,7,8,9,10,11,12,13,14,15,16,17,18,19,20},
	{1,2,3,4,5,6,7,8,9,10,11,12,13,14,15,16,17,18,19,20},
	{1,2,3,4,5,6,7,8,9,10,11,12,13,14,15,16,17,18,19,20},
	{1,2,3,4,5,6,7,8,9,10,11,12,13,14,15,16,17,18,19,20},
	{1,2,3,4,5,6,7,8,9,10,11,12,13,14,15,16,17,18,19,20},
	{1,2,3,4,5,6,7,8,9,10,11,12,13,14,15,16,17,18,19,20},
	{1,2,3,4,5,6,7,8,9,10,11,12,13,14,15,16,17,18,19,20},
	{1,2,3,4,5,6,7,8,9,10,11,12,13,14,15,16,17,18,19,20},
	{1,2,3,4,5,6,7,8,9,10,11,12,13,14,15,16,17,18,19,20},
	{1,2,3,4,5,6,7,8,9,10,11,12,13,14,15,16,17,18,19,20},
	{1,2,3,4,5,6,7,8,9,10,11,12,13,14,15,16,17,18,19,20},
	{1,2,3,4,5,6,7,8,9,10,11,12,13,14,15,16,17,18,19,20},
	{1,2,3,4,5,6,7,8,9,10,11,12,13,14,15,16,17,18,19,20},
	{1,2,3,4,5,6,7,8,9,10,11,12,13,14,15,16,17,18,19,20},
	{1,2,3,4,5,6,7,8,9,10,11,12,13,14,15,16,17,18,19,20},
	{1,2,3,4,5,6,7,8,9,10,11,12,13,14,15,16,17,18,19,20},
	{1,2,3,4,5,6,7,8,9,10,11,12,13,14,15,16,17,18,19,20},
	{}];

POTENTIAL_ACT = [{2,3,4,5,6,7,8,9,10,11,12,13,14,15,16,17,18,19,20,21},
	{2,3,4,5,6,7,8,9,10,11,12,13,14,15,16,17,18,19,20,21},
	{2,3,4,5,6,7,8,9,10,11,12,13,14,15,16,17,18,19,20,21},
	{2,3,4,5,6,7,8,9,10,11,12,13,14,15,16,17,18,19,20,21},
	{2,3,4,5,6,7,8,9,10,11,12,13,14,15,16,17,18,19,20,21},
	{2,3,4,5,6,7,8,9,10,11,12,13,14,15,16,17,18,19,20,21},
	{2,3,4,5,6,7,8,9,10,11,12,13,14,15,16,17,18,19,20,21},
	{2,3,4,5,6,7,8,9,10,11,12,13,14,15,16,17,18,19,20,21},
	{2,3,4,5,6,7,8,9,10,11,12,13,14,15,16,17,18,19,20,21},
	{2,3,4,5,6,7,8,9,10,11,12,13,14,15,16,17,18,19,20,21},
	{2,3,4,5,6,7,8,9,10,11,12,13,14,15,16,17,18,19,20,21},
	{2,3,4,5,6,7,8,9,10,11,12,13,14,15,16,17,18,19,20,21},
	{2,3,4,5,6,7,8,9,10,11,12,13,14,15,16,17,18,19,20,21},
	{2,3,4,5,6,7,8,9,10,11,12,13,14,15,16,17,18,19,20,21},
	{2,3,4,5,6,7,8,9,10,11,12,13,14,15,16,17,18,19,20,21},
	{2,3,4,5,6,7,8,9,10,11,12,13,14,15,16,17,18,19,20,21},
	{2,3,4,5,6,7,8,9,10,11,12,13,14,15,16,17,18,19,20,21},
	{2,3,4,5,6,7,8,9,10,11,12,13,14,15,16,17,18,19,20,21},
	{2,3,4,5,6,7,8,9,10,11,12,13,14,15,16,17,18,19,20,21},
	{2,3,4,5,6,7,8,9,10,11,12,13,14,15,16,17,18,19,20,21}];
